3 5 2
3 2 1 117 2 125 2 4 140 2 130 2 4 150 5 160
3 2 1 214 3 150 2 3 55 2 66 2 5 78 3 65
3 2 1 87 2 62 2 4 70 3 80 2 4 190 5 100

   0  83  55  
104  0  94  
13  61  0  
0  5  51  
38  0  24  
50  43  0  
0  86  53  
8  0  65  
28  107  0  
0  34  47  
61  0  33  
91  54  0  
0  49  86  
46  0  88  
66  49  0  
